(set-info :origin "SVCOMP13 benchmarks generated by Arie Gurfinkel")
(set-info :status sat)
(set-logic HORN)
(declare-fun cp-rel-entry () Bool)
(declare-fun cp-rel-bb1.i.i (Real Real Real Real) Bool)
(declare-fun cp-rel-bb2.i.i35.i.i () Bool)
(assert |cp-rel-entry|)
(assert (forall ((?A Real) (?B Real) (?C Real) (?D Real) (?E Bool) )(let (($x876234 (and |cp-rel-entry| (<= ?D 0.0) (>= ?C 0.0) (<= ?C 0.0) (>= ?B 1.0) (<= ?B 1.0) (>= ?A 0.0) (<= ?A 0.0) (= ?E true) (>= ?D 0.0))))
(=> $x876234 (|cp-rel-bb1.i.i| ?A ?B ?C ?D))))
)
(assert (forall ((?A Real) (?B Real) (?C Real) (?D Real) (?E Real) (?F Real) (?G Real) (?H Real) (?I Bool) (?J Bool) (?K Bool) (?L Bool) (?M Bool) (?N Bool) (?O Real) (?P Real) (?Q Bool) (?R Bool) (?S Bool) (?T Bool) (?U Bool) (?V Bool) (?W Real) (?X Real) (?Y Bool) (?Z Bool) (?A1 Bool) (?B1 Bool) (?C1 Bool) (?D1 Bool) (?E1 Bool) (?F1 Bool) (?G1 Bool) (?H1 Bool) (?I1 Bool) (?J1 Real) (?K1 Real) (?L1 Real) (?M1 Bool) (?N1 Real) (?O1 Bool) (?P1 Bool) (?Q1 Bool) (?R1 Bool) (?S1 Bool) (?T1 Real) (?U1 Bool) (?V1 Real) (?W1 Real) (?X1 Bool) (?Y1 Bool) (?Z1 Bool) (?A2 Real) (?B2 Bool) (?C2 Bool) (?D2 Bool) (?E2 Bool) )(let (($x322978 (|cp-rel-bb1.i.i| ?E ?F ?G ?H)))
(let (($x224127 (or (not ?I) (and ?J ?K (not ?L)))))
(let (($x41271 (or (not ?I) ?K)))
(let (($x278396 (not ?M)))
(let (($x159082 (or $x278396 (and ?I ?N (<= ?O ?P) (>= ?O ?P)) (and ?J ?Q ?L (<= ?O ?B) (>= ?O ?B)))))
(let (($x104326 (or $x278396 (and ?N (not ?Q)) (and ?Q (not ?N)))))
(let (($x413768 (or (not ?R) (and ?M ?S (not ?T)))))
(let (($x166180 (or (not ?R) ?S)))
(let (($x895353 (not ?U)))
(let (($x125160 (or $x895353 (and ?R ?V (<= ?W ?X) (>= ?W ?X)) (and ?M ?Y ?T (<= ?W ?A) (>= ?W ?A)))))
(let (($x42277 (or $x895353 (and ?V (not ?Y)) (and ?Y (not ?V)))))
(let (($x621984 (or (not ?Z) (and ?U ?A1 ?B1))))
(let (($x170919 (or (not ?Z) ?A1)))
(let (($x874111 (or (not ?C1) (and ?U ?D1 (not ?B1)))))
(let (($x283602 (or (not ?C1) ?D1)))
(let (($x30142 (or (not ?E1) (and ?C1 ?F1 ?G1))))
(let (($x80486 (or (not ?E1) ?F1)))
(let (($x926058 (>= ?J1 ?N1)))
(let (($x121994 (<= ?J1 ?N1)))
(let (($x508592 (and ?C1 ?O1 (not ?G1) $x121994 $x926058 (<= ?K1 0.0) (>= ?K1 0.0))))
(let (($x311861 (and ?Z ?I1 (<= ?J1 ?O) (>= ?J1 ?O) (<= ?K1 ?L1) (>= ?K1 ?L1))))
(let (($x261815 (not ?H1)))
(let (($x233855 (or $x261815 $x311861 (and ?E1 ?M1 $x121994 $x926058 (<= ?K1 ?D) (>= ?K1 ?D)) $x508592)))
(let (($x912063 (or $x261815 (and ?I1 (not ?M1) (not ?O1)) (and ?M1 (not ?I1) (not ?O1)) (and ?O1 (not ?I1) (not ?M1)))))
(let (($x884106 (or (not ?P1) (and ?H1 ?Q1 (not ?R1)))))
(let (($x828950 (or (not ?P1) ?Q1)))
(let (($x831389 (and ?H1 ?R1 (<= ?E ?W) (>= ?E ?W) (<= ?F ?J1) (>= ?F ?J1) (<= ?G 0.0) (>= ?G 0.0) (<= ?H ?K1) (>= ?H ?K1))))
(let (($x363903 (and ?P1 ?S1 (<= ?E ?W) (>= ?E ?W) (<= ?F ?J1) (>= ?F ?J1) (<= ?G 1.0) (>= ?G 1.0) (<= ?H ?K1) (>= ?H ?K1))))
(let (($x101848 (= ?L (= ?T1 0.0))))
(let (($x168221 (= ?V1 (ite ?U1 1.0 0.0))))
(let (($x277990 (= ?T (= ?W1 0.0))))
(let (($x865441 (= ?X (ite ?X1 1.0 0.0))))
(let (($x299662 (= ?Y1 (not (<= ?O 1.0)))))
(let (($x505130 (= ?Z1 (not (<= ?O 0.0)))))
(let (($x196134 (= ?A2 (+ (~ 1.0) ?O))))
(let (($x696002 (= ?N1 (ite ?Z1 ?A2 ?O))))
(let (($x909199 (= ?B2 (= ?W 0.0))))
(let (($x361669 (= ?C2 (= ?N1 0.0))))
(let (($x808310 (= ?G1 (and ?B2 ?C2))))
(let (($x545668 (= ?D2 (= ?W 0.0))))
(let (($x126082 (= ?E2 (= ?K1 0.0))))
(let (($x376271 (= ?R1 (or ?E2 ?D2))))
(let (($x407008 (and (|cp-rel-bb1.i.i| ?A ?B ?C ?D) $x376271 $x126082 $x545668 $x808310 $x361669 $x909199 $x696002 $x196134 $x505130 (= ?L1 (ite ?Y1 1.0 ?D)) $x299662 (= ?B1 (= ?D 0.0)) $x865441 (= ?X1 (= ?A 0.0)) $x277990 (= ?P (+ ?V1 ?B)) $x168221 (= ?U1 (not (<= 2.0 ?B))) $x101848 (or $x363903 $x831389) $x828950 $x884106 $x912063 $x233855 $x80486 $x30142 $x283602 $x874111 $x170919 $x621984 $x42277 $x125160 $x166180 $x413768 $x104326 $x159082 $x41271 $x224127 (= ?S1 (= ?C 0.0)))))
(=> $x407008 $x322978)))))))))))))))))))))))))))))))))))))))))))))
)
(assert (forall ((?A Real) (?B Real) (?C Real) (?D Real) (?E Bool) (?F Bool) (?G Bool) (?H Bool) (?I Bool) (?J Bool) (?K Real) (?L Real) (?M Bool) (?N Bool) (?O Bool) (?P Bool) (?Q Bool) (?R Bool) (?S Real) (?T Real) (?U Bool) (?V Bool) (?W Bool) (?X Bool) (?Y Bool) (?Z Bool) (?A1 Bool) (?B1 Bool) (?C1 Bool) (?D1 Bool) (?E1 Bool) (?F1 Real) (?G1 Real) (?H1 Real) (?I1 Bool) (?J1 Real) (?K1 Bool) (?L1 Bool) (?M1 Bool) (?N1 Bool) (?O1 Bool) (?P1 Real) (?Q1 Bool) (?R1 Real) (?S1 Real) (?T1 Bool) (?U1 Bool) (?V1 Bool) (?W1 Real) (?X1 Bool) (?Y1 Bool) (?Z1 Bool) (?A2 Bool) )(let (($x224127 (or (not ?E) (and ?F ?G (not ?H)))))
(let (($x41271 (or (not ?E) ?G)))
(let (($x278396 (not ?I)))
(let (($x256357 (or $x278396 (and ?E ?J (<= ?K ?L) (>= ?K ?L)) (and ?F ?M ?H (<= ?K ?B) (>= ?K ?B)))))
(let (($x104326 (or $x278396 (and ?J (not ?M)) (and ?M (not ?J)))))
(let (($x413768 (or (not ?N) (and ?I ?O (not ?P)))))
(let (($x166180 (or (not ?N) ?O)))
(let (($x895353 (not ?Q)))
(let (($x636692 (or $x895353 (and ?N ?R (<= ?S ?T) (>= ?S ?T)) (and ?I ?U ?P (<= ?S ?A) (>= ?S ?A)))))
(let (($x42277 (or $x895353 (and ?R (not ?U)) (and ?U (not ?R)))))
(let (($x621984 (or (not ?V) (and ?Q ?W ?X))))
(let (($x170919 (or (not ?V) ?W)))
(let (($x874111 (or (not ?Y) (and ?Q ?Z (not ?X)))))
(let (($x283602 (or (not ?Y) ?Z)))
(let (($x30142 (or (not ?A1) (and ?Y ?B1 ?C1))))
(let (($x80486 (or (not ?A1) ?B1)))
(let (($x926058 (>= ?F1 ?J1)))
(let (($x121994 (<= ?F1 ?J1)))
(let (($x508592 (and ?Y ?K1 (not ?C1) $x121994 $x926058 (<= ?G1 0.0) (>= ?G1 0.0))))
(let (($x311861 (and ?V ?E1 (<= ?F1 ?K) (>= ?F1 ?K) (<= ?G1 ?H1) (>= ?G1 ?H1))))
(let (($x261815 (not ?D1)))
(let (($x465448 (or $x261815 $x311861 (and ?A1 ?I1 $x121994 $x926058 (<= ?G1 ?D) (>= ?G1 ?D)) $x508592)))
(let (($x912063 (or $x261815 (and ?E1 (not ?I1) (not ?K1)) (and ?I1 (not ?E1) (not ?K1)) (and ?K1 (not ?E1) (not ?I1)))))
(let (($x884106 (or (not ?L1) (and ?D1 ?M1 (not ?N1)))))
(let (($x828950 (or (not ?L1) ?M1)))
(let (($x101848 (= ?H (= ?P1 0.0))))
(let (($x168221 (= ?R1 (ite ?Q1 1.0 0.0))))
(let (($x277990 (= ?P (= ?S1 0.0))))
(let (($x865441 (= ?T (ite ?T1 1.0 0.0))))
(let (($x299662 (= ?U1 (not (<= ?K 1.0)))))
(let (($x505130 (= ?V1 (not (<= ?K 0.0)))))
(let (($x196134 (= ?W1 (+ (~ 1.0) ?K))))
(let (($x696002 (= ?J1 (ite ?V1 ?W1 ?K))))
(let (($x909199 (= ?X1 (= ?S 0.0))))
(let (($x361669 (= ?Y1 (= ?J1 0.0))))
(let (($x808310 (= ?C1 (and ?X1 ?Y1))))
(let (($x545668 (= ?Z1 (= ?S 0.0))))
(let (($x126082 (= ?A2 (= ?G1 0.0))))
(let (($x376271 (= ?N1 (or ?A2 ?Z1))))
(let (($x322978 (|cp-rel-bb1.i.i| ?A ?B ?C ?D)))
(let (($x890879 (and $x322978 $x376271 $x126082 $x545668 $x808310 $x361669 $x909199 $x696002 $x196134 $x505130 (= ?H1 (ite ?U1 1.0 ?D)) $x299662 (= ?X (= ?D 0.0)) $x865441 (= ?T1 (= ?A 0.0)) $x277990 (= ?L (+ ?R1 ?B)) $x168221 (= ?Q1 (not (<= 2.0 ?B))) $x101848 (not (= ?O1 true)) (= ?L1 true) $x828950 $x884106 $x912063 $x465448 $x80486 $x30142 $x283602 $x874111 $x170919 $x621984 $x42277 $x636692 $x166180 $x413768 $x104326 $x256357 $x41271 $x224127 (= ?O1 (= ?C 0.0)))))
(=> $x890879 |cp-rel-bb2.i.i35.i.i|)))))))))))))))))))))))))))))))))))))))))))
)
(assert (not cp-rel-bb2.i.i35.i.i))
(check-sat)
